Instance Name : rc103
Date : 2022-07-19
Solution
Route 1 : 61 42 44 43 40 35 37 54 81
Route 2 : 39 36 38 41 72 71 93 96
Route 3 : 14 47 15 11 9 10 13 16 17 12
Route 4 : 20 23 22 49 19 18 48 21 25 24
Route 5 : 50 33 76 89 63 85 51 91
Route 6 : 65 57 59 87 97 75 58 77
Route 7 : 27 26 28 30 32 29 31 34 94 80
Route 8 : 64 83 99 52 86 74 82 90
Route 9 : 2 45 46 8 7 6 4 5 3 1 100
Route 10 : 92 95 62 67 84 56 66
Route 11 : 88 78 79 73 60 70
Route 12 : 69 98 53 55 68
